100
1000
168
168
167
166
165
165
165
165
164
164
163
163
163
163
163
163
163
162
162
162
162
162
162
161
161
159
157
157
157
157
156
156
155
155
153
153
153
152
151
151
150
150
149
149
149
147
147
147
147
146
145
144
144
143
142
142
142
141
139
138
134
133
133
133
132
132
131
130
129
128
128
128
128
127
127
127
127
127
125
125
124
123
123
123
121
119
119
119
118
117
117
117
117
117
117
116
116
115
115
114
